p cnf 7230 16
1242 -1377 0
-1222 -1384 1385 0
-1238 -1381 1382 0
1222 -1386 0
1238 -1383 0
-1242 -1375 1376 0
1242 -1380 0
-1242 -1378 1379 0
-1385 1386 0
-1382 1383 0
-1376 1377 0
1384 -1386 0
1381 -1383 0
-1379 1380 0
1378 -1380 0
1375 -1377 0
